NAME : n100w20.001.827.tour
COMMENT : Length = 827
COMMENT : Found by LKH [Keld Helsgaun] Tue Nov  7 19:36:28 2017
TYPE : TOUR
DIMENSION : 101
TOUR_SECTION
1
89
31
2
69
50
12
58
43
10
66
29
73
21
80
5
51
96
23
25
7
63
61
87
95
54
65
57
62
11
33
9
13
71
6
30
88
94
35
77
86
93
99
79
78
4
44
3
76
75
45
42
14
28
60
56
17
92
24
20
67
48
36
41
39
19
34
74
97
32
16
84
8
47
53
49
59
85
40
98
100
91
68
90
38
83
82
55
64
18
72
15
81
26
46
27
52
22
101
37
70
-1
EOF
